qbf_easy_train/easy_3192_SAT.qdimacs
p cnf 27 70
a 16 11 5 0
e 1 2 3 4 6 7 8 9 10 12 13 14 15 17 18 19 20 21 22 23 24 25 26 27 0
3 1 0
3 -2 0
-1 2 -3 0
-4 5 -6 0
4 -5 -6 0
-4 -5 6 0
4 5 6 0
-7 -3 0
-7 -6 0
3 6 7 0
-8 5 0
-8 -2 0
-5 2 8 0
-10 6 0
-10 -9 0
-6 9 10 0
2 -10 -11 0
-2 10 -11 0
2 10 11 0
-2 -10 11 0
-11 -1 -12 0
11 1 -12 0
-11 1 12 0
11 -1 12 0
12 4 -13 0
-12 -4 -13 0
12 -4 13 0
-12 4 13 0
-14 8 0
-14 13 0
-8 -13 14 0
-4 10 -15 0
4 -10 -15 0
-4 -10 15 0
4 10 15 0
17 9 0
17 -11 0
-9 11 -17 0
18 16 0
18 17 0
-16 -17 -18 0
-15 -18 -19 0
15 18 -19 0
-15 18 19 0
15 -18 19 0
-21 2 0
-21 -20 0
-2 20 21 0
-23 3 0
-23 -22 0
-3 22 23 0
-24 -21 0
-24 23 0
21 -23 24 0
-25 19 0
-25 24 0
-19 -24 25 0
-26 -14 0
-26 25 0
14 -25 26 0
27 -7 0
27 26 0
7 -26 -27 0
-13 10 26 -2 0
25 21 15 -4 0
-8 22 11 -1 0
-14 -22 -25 0
-7 -2 22 -4 13 20 0
8 -16 22 -25 0
27 0
