sat_easy_train/easy_3192_SAT.dimacs
p cnf 104 339
3 1 0
3 2 0
-1 -2 -3 0
-1 -4 -5 0
1 4 -5 0
-1 4 5 0
1 -4 5 0
8 -6 0
8 -7 0
6 7 -8 0
9 -6 0
9 8 0
6 -8 -9 0
12 -10 0
12 11 0
10 -11 -12 0
-12 -7 -13 0
12 7 -13 0
-12 7 13 0
12 -7 13 0
-13 14 -15 0
13 -14 -15 0
-13 -14 15 0
13 14 15 0
16 9 0
16 15 0
-9 -15 -16 0
19 -18 0
19 2 0
18 -2 -19 0
-21 -19 0
-21 -20 0
19 20 21 0
17 21 -22 0
-17 -21 -22 0
17 -21 22 0
-17 21 22 0
-15 -22 -23 0
15 22 -23 0
-15 22 23 0
15 -22 23 0
-24 16 0
-24 23 0
-16 -23 24 0
5 -24 -25 0
-5 24 -25 0
5 24 25 0
-5 -24 25 0
26 -3 0
26 25 0
3 -25 -26 0
-27 -13 -28 0
27 13 -28 0
-27 13 28 0
27 -13 28 0
13 28 -29 0
-13 -28 -29 0
13 -28 29 0
-13 28 29 0
30 -19 0
30 19 0
-31 -29 0
-31 -30 0
29 30 31 0
13 -28 -32 0
-13 28 -32 0
13 28 32 0
-13 -28 32 0
33 31 0
33 -32 0
-31 32 -33 0
-34 11 -35 0
34 -11 -35 0
-34 -11 35 0
34 11 35 0
36 2 0
36 34 0
-2 -34 -36 0
-37 -35 0
-37 -36 0
35 36 37 0
-38 -1 0
-38 -20 0
1 20 38 0
-39 -13 0
-39 38 0
13 -38 39 0
-37 -39 -40 0
37 39 -40 0
-37 39 40 0
37 -39 40 0
41 -38 0
41 -27 0
38 27 -41 0
-36 34 -42 0
36 -34 -42 0
-36 -34 42 0
36 34 42 0
-42 38 -43 0
42 -38 -43 0
-42 -38 43 0
42 38 43 0
-44 -41 0
-44 43 0
41 -43 44 0
45 -40 0
45 44 0
40 -44 -45 0
-33 -45 -46 0
33 45 -46 0
-33 45 46 0
33 -45 46 0
-47 -48 -49 0
47 48 -49 0
-47 48 49 0
47 -48 49 0
50 15 0
50 49 0
-15 -49 -50 0
-8 -13 -51 0
8 13 -51 0
-8 13 51 0
8 -13 51 0
18 -12 -52 0
-18 12 -52 0
18 12 52 0
-18 -12 52 0
10 52 -53 0
-10 -52 -53 0
10 -52 53 0
-10 52 53 0
54 -51 0
54 53 0
51 -53 -54 0
-55 50 0
-55 54 0
-50 -54 55 0
57 -7 0
57 34 0
7 -34 -57 0
-6 -57 -58 0
6 57 -58 0
-6 57 58 0
6 -57 58 0
59 17 0
59 58 0
-17 -58 -59 0
56 59 -60 0
-56 -59 -60 0
56 -59 60 0
-56 59 60 0
55 60 -61 0
-55 -60 -61 0
55 -60 61 0
-55 60 61 0
-62 46 0
-62 61 0
-46 -61 62 0
-63 16 0
-63 47 0
-16 -47 63 0
-64 -10 0
-64 -20 0
10 20 64 0
65 -64 0
65 -35 0
64 35 -65 0
47 -38 -66 0
-47 38 -66 0
47 38 66 0
-47 -38 66 0
-67 -66 0
-67 -41 0
66 41 67 0
-67 64 -68 0
67 -64 -68 0
-67 -64 68 0
67 64 68 0
69 27 0
69 -57 0
-27 57 -69 0
69 9 -70 0
-69 -9 -70 0
69 -9 70 0
-69 9 70 0
-71 -68 0
-71 -70 0
68 70 71 0
-72 -65 0
-72 71 0
65 -71 72 0
-73 -66 0
-73 38 0
66 -38 73 0
74 58 0
74 73 0
-58 -73 -74 0
-64 -8 -75 0
64 8 -75 0
-64 8 75 0
64 -8 75 0
76 74 0
76 75 0
-74 -75 -76 0
6 -15 -77 0
-6 15 -77 0
6 15 77 0
-6 -15 77 0
-78 76 0
-78 -77 0
-76 77 78 0
-79 72 0
-79 78 0
-72 -78 79 0
-80 63 0
-80 79 0
-63 -79 80 0
-38 9 -81 0
38 -9 -81 0
-38 -9 81 0
38 9 81 0
82 -64 0
82 -81 0
64 81 -82 0
82 -20 -83 0
-82 20 -83 0
82 20 83 0
-82 -20 83 0
-84 48 0
-84 -67 0
-48 67 84 0
85 47 0
85 73 0
-47 -73 -85 0
86 -84 0
86 85 0
84 -85 -86 0
-87 -83 0
-87 -86 0
83 86 87 0
88 -10 0
88 36 0
10 -36 -88 0
-89 -88 0
-89 66 0
88 -66 89 0
90 89 0
90 36 0
-89 -36 -90 0
91 -89 0
91 90 0
89 -90 -91 0
92 -87 0
92 91 0
87 -91 -92 0
93 80 0
93 92 0
-80 -92 -93 0
62 93 -94 0
-62 -93 -94 0
62 -93 94 0
-62 93 94 0
15 4 -95 0
-15 -4 -95 0
15 -4 95 0
-15 4 95 0
96 -95 0
96 15 0
95 -15 -96 0
97 -10 0
97 88 0
10 -88 -97 0
-98 96 0
-98 -97 0
-96 97 98 0
99 19 0
99 2 0
-19 -2 -99 0
-100 -28 0
-100 27 0
28 -27 100 0
101 -99 0
101 100 0
99 -100 -101 0
-102 -98 0
-102 101 0
98 -101 102 0
103 -94 0
103 102 0
94 -102 -103 0
-26 103 -104 0
26 -103 -104 0
-26 -103 104 0
26 103 104 0
15 49 40 0
15 -7 12 -56 -82 -33 0
-80 55 0
-90 41 -52 -30 5 0
-86 -101 -6 33 0
-51 80 16 40 44 0
-81 13 7 -75 -1 -6 0
-39 40 -61 -30 0
-104 -32 -95 71 0
47 93 84 -80 -62 0
12 31 -49 40 -20 0
27 32 102 87 48 75 0
45 -5 -55 66 56 -40 0
-79 -85 -91 0
66 -89 46 0
-61 53 -34 0
-63 43 0
-8 -33 60 104 0
-104 80 11 0
-57 38 -32 -95 65 0
-75 -8 60 91 0
-68 -18 -100 -16 101 0
22 -43 0
44 4 -52 8 20 -12 0
9 74 -70 4 2 -89 0
-24 92 0
-8 -94 -101 -103 0
-80 76 -30 39 0
51 8 0
43 3 -83 38 -100 -103 0
62 35 17 -95 87 0
-22 -63 56 -36 -29 23 0
67 -2 -75 0
-16 43 49 -93 -73 0
43 -41 -7 21 0
-79 -69 -92 -3 0
-82 -53 0
91 65 -84 -1 26 0
12 -11 60 -48 0
-14 -40 -101 85 -1 0
28 -45 47 0
-36 -66 9 -5 70 -59 0
-47 -30 -53 -28 -24 0
-29 3 32 -14 -53 36 0
104 0
